data;

set A := 169 443 503 698 852 846 493 708 56 670 248 110 29 595 560 457 980 523 807 891 1000 250 18 924 374 978 136 227 640 268 161 756 78 245 743 364 323 610 272 35 53 803 57 309 683 572 312 467 717 946 280 882 168 665 461 409 292 408 859 376 379 13 371 95 8 909 474 450 562 412 80 662 34 96 582 381 208 26 271 382 281 796 999 445 524 819 606 313 415 982 86 520;
param T := 23000;

end;
